(set-info :source |printed by MathSAT|)
(declare-fun |!{$(in_main#0)<a6.7>}| () (Array Int Int))
(declare-fun |!{$(in_main#0)<a6.7>}.next| () (Array Int Int))
(declare-fun |!{$(in_main#0)<a7.8>}| () (Array Int Int))
(declare-fun |!{$(in_main#0)<a7.8>}.next| () (Array Int Int))
(declare-fun |!{$(in_main#0)<a9.9>}| () (Array Int Int))
(declare-fun |!{$(in_main#0)<a9.9>}.next| () (Array Int Int))
(declare-fun |!{$(in_main#0)<N>}| () Int)
(declare-fun |!{$(in_main#0)<N>}.next| () Int)
(declare-fun |!{$(in_main#0)<a>}| () Int)
(declare-fun |!{$(in_main#0)<a>}.next| () Int)
(declare-fun |!{$(in_main#0)<i>}| () Int)
(declare-fun |!{$(in_main#0)<i>}.next| () Int)
(declare-fun |!{$(in_main#0)<x>}| () Int)
(declare-fun |!{$(in_main#0)<x>}.next| () Int)
(declare-fun |!{$(in_main#0)<a1.1>}| () (Array Int Int))
(declare-fun |!{$(in_main#0)<a1.1>}.next| () (Array Int Int))
(declare-fun |!{$(in_main#0)<a8.2>}| () (Array Int Int))
(declare-fun |!{$(in_main#0)<a8.2>}.next| () (Array Int Int))
(declare-fun |!{$(in_main#0)<a2.3>}| () (Array Int Int))
(declare-fun |!{$(in_main#0)<a2.3>}.next| () (Array Int Int))
(declare-fun |!{$(in_main#0)<a3.4>}| () (Array Int Int))
(declare-fun |!{$(in_main#0)<a3.4>}.next| () (Array Int Int))
(declare-fun |!{$(in_main#0)<a4.5>}| () (Array Int Int))
(declare-fun |!{$(in_main#0)<a4.5>}.next| () (Array Int Int))
(declare-fun |!{$(in_main#0)<a5.6>}| () (Array Int Int))
(declare-fun |!{$(in_main#0)<a5.6>}.next| () (Array Int Int))
(declare-fun |!{$(in_main#0)<$(in___VERIFIER_nondet_int#0)<h#<__VERIFIER_nondet_int.return>>>}| () Int)
(declare-fun |!{$(in_main#0)<$(in___VERIFIER_nondet_int#1)<h#<__VERIFIER_nondet_int.return>>>}| () Int)
(declare-fun |!{$(in_main#0)<$(in___VERIFIER_nondet_int#2)<h#<__VERIFIER_nondet_int.return>>>}| () Int)
(declare-fun !pc () Int)
(declare-fun !pc.next () Int)
(declare-fun |%{$(in_main#0)<i>}#1| () Int)
(declare-fun |%{$(in_main#0)<x>}#1| () Int)
(declare-fun |%{$(in_main#0)<a1.1>}#1| () (Array Int Int))
(declare-fun |%{$(in_main#0)<a8.2>}#1| () (Array Int Int))
(declare-fun |%{$(in_main#0)<a2.3>}#1| () (Array Int Int))
(declare-fun |%{$(in_main#0)<a3.4>}#1| () (Array Int Int))
(declare-fun |%{$(in_main#0)<a4.5>}#1| () (Array Int Int))
(declare-fun |%{$(in_main#0)<a5.6>}#1| () (Array Int Int))
(declare-fun |%{$(in_main#0)<a6.7>}#1| () (Array Int Int))
(declare-fun |%{$(in_main#0)<a7.8>}#1| () (Array Int Int))
(declare-fun |%{$(in_main#0)<a9.9>}#1| () (Array Int Int))
(define-fun .def_58 () Int (! !pc :next !pc.next))
(define-fun .def_61 () Bool (! (= .def_58 2) :init true))
(define-fun .def_409 () Bool (= .def_58 43))
(define-fun .def_381 () Bool (= !pc.next 72))
(define-fun .def_412 () Bool (and .def_381 .def_409))
(define-fun .def_16 () Int (! |!{$(in_main#0)<a>}| :next |!{$(in_main#0)<a>}.next|))
(define-fun .def_14 () Int (! |!{$(in_main#0)<N>}| :next |!{$(in_main#0)<N>}.next|))
(define-fun .def_388 () Bool (<= .def_14 .def_16))
(define-fun .def_250 () Bool (= |!{$(in_main#0)<i>}.next| 0))
(define-fun .def_10 () (Array Int Int) (! |!{$(in_main#0)<a7.8>}| :next |!{$(in_main#0)<a7.8>}.next|))
(define-fun .def_123 () Bool (= .def_10 |!{$(in_main#0)<a7.8>}.next|))
(define-fun .def_8 () (Array Int Int) (! |!{$(in_main#0)<a6.7>}| :next |!{$(in_main#0)<a6.7>}.next|))
(define-fun .def_121 () Bool (= .def_8 |!{$(in_main#0)<a6.7>}.next|))
(define-fun .def_148 () Bool (and .def_121 .def_123))
(define-fun .def_12 () (Array Int Int) (! |!{$(in_main#0)<a9.9>}| :next |!{$(in_main#0)<a9.9>}.next|))
(define-fun .def_125 () Bool (= .def_12 |!{$(in_main#0)<a9.9>}.next|))
(define-fun .def_149 () Bool (and .def_125 .def_148))
(define-fun .def_127 () Bool (= .def_14 |!{$(in_main#0)<N>}.next|))
(define-fun .def_150 () Bool (and .def_127 .def_149))
(define-fun .def_129 () Bool (= .def_16 |!{$(in_main#0)<a>}.next|))
(define-fun .def_151 () Bool (and .def_129 .def_150))
(define-fun .def_251 () Bool (and .def_151 .def_250))
(define-fun .def_20 () Int (! |!{$(in_main#0)<x>}| :next |!{$(in_main#0)<x>}.next|))
(define-fun .def_133 () Bool (= .def_20 |!{$(in_main#0)<x>}.next|))
(define-fun .def_252 () Bool (and .def_133 .def_251))
(define-fun .def_22 () (Array Int Int) (! |!{$(in_main#0)<a1.1>}| :next |!{$(in_main#0)<a1.1>}.next|))
(define-fun .def_135 () Bool (= .def_22 |!{$(in_main#0)<a1.1>}.next|))
(define-fun .def_253 () Bool (and .def_135 .def_252))
(define-fun .def_24 () (Array Int Int) (! |!{$(in_main#0)<a8.2>}| :next |!{$(in_main#0)<a8.2>}.next|))
(define-fun .def_137 () Bool (= .def_24 |!{$(in_main#0)<a8.2>}.next|))
(define-fun .def_254 () Bool (and .def_137 .def_253))
(define-fun .def_26 () (Array Int Int) (! |!{$(in_main#0)<a2.3>}| :next |!{$(in_main#0)<a2.3>}.next|))
(define-fun .def_139 () Bool (= .def_26 |!{$(in_main#0)<a2.3>}.next|))
(define-fun .def_255 () Bool (and .def_139 .def_254))
(define-fun .def_28 () (Array Int Int) (! |!{$(in_main#0)<a3.4>}| :next |!{$(in_main#0)<a3.4>}.next|))
(define-fun .def_141 () Bool (= .def_28 |!{$(in_main#0)<a3.4>}.next|))
(define-fun .def_256 () Bool (and .def_141 .def_255))
(define-fun .def_30 () (Array Int Int) (! |!{$(in_main#0)<a4.5>}| :next |!{$(in_main#0)<a4.5>}.next|))
(define-fun .def_143 () Bool (= .def_30 |!{$(in_main#0)<a4.5>}.next|))
(define-fun .def_257 () Bool (and .def_143 .def_256))
(define-fun .def_32 () (Array Int Int) (! |!{$(in_main#0)<a5.6>}| :next |!{$(in_main#0)<a5.6>}.next|))
(define-fun .def_145 () Bool (= .def_32 |!{$(in_main#0)<a5.6>}.next|))
(define-fun .def_258 () Bool (and .def_145 .def_257))
(define-fun .def_408 () Bool (and .def_258 .def_388))
(define-fun .def_413 () Bool (and .def_408 .def_412))
(define-fun .def_107 () Bool (= !pc.next 43))
(define-fun .def_410 () Bool (and .def_107 .def_409))
(define-fun .def_391 () (Array Int Int) (store .def_24 .def_16 |!{$(in_main#0)<$(in___VERIFIER_nondet_int#2)<h#<__VERIFIER_nondet_int.return>>>}|))
(define-fun .def_401 () Bool (= |!{$(in_main#0)<a8.2>}.next| .def_391))
(define-fun .def_390 () (Array Int Int) (store .def_22 .def_16 |!{$(in_main#0)<$(in___VERIFIER_nondet_int#1)<h#<__VERIFIER_nondet_int.return>>>}|))
(define-fun .def_399 () Bool (= |!{$(in_main#0)<a1.1>}.next| .def_390))
(define-fun .def_393 () Int (* (- 1) |!{$(in_main#0)<a>}.next|))
(define-fun .def_394 () Int (+ .def_16 .def_393))
(define-fun .def_395 () Bool (= .def_394 (- 1)))
(define-fun .def_396 () Bool (and .def_150 .def_395))
(define-fun .def_18 () Int (! |!{$(in_main#0)<i>}| :next |!{$(in_main#0)<i>}.next|))
(define-fun .def_131 () Bool (= .def_18 |!{$(in_main#0)<i>}.next|))
(define-fun .def_397 () Bool (and .def_131 .def_396))
(define-fun .def_398 () Bool (and .def_133 .def_397))
(define-fun .def_400 () Bool (and .def_398 .def_399))
(define-fun .def_402 () Bool (and .def_400 .def_401))
(define-fun .def_403 () Bool (and .def_139 .def_402))
(define-fun .def_404 () Bool (and .def_141 .def_403))
(define-fun .def_405 () Bool (and .def_143 .def_404))
(define-fun .def_406 () Bool (and .def_145 .def_405))
(define-fun .def_389 () Bool (not .def_388))
(define-fun .def_407 () Bool (and .def_389 .def_406))
(define-fun .def_411 () Bool (and .def_407 .def_410))
(define-fun .def_414 () Bool (or .def_411 .def_413))
(define-fun .def_380 () Bool (= .def_58 72))
(define-fun .def_364 () Bool (= !pc.next 86))
(define-fun .def_384 () Bool (and .def_364 .def_380))
(define-fun .def_196 () Bool (<= .def_14 .def_18))
(define-fun .def_259 () Bool (and .def_196 .def_258))
(define-fun .def_385 () Bool (and .def_259 .def_384))
(define-fun .def_382 () Bool (and .def_380 .def_381))
(define-fun .def_371 () Int (select .def_22 .def_18))
(define-fun .def_372 () (Array Int Int) (store .def_26 .def_18 .def_371))
(define-fun .def_373 () Bool (= |!{$(in_main#0)<a2.3>}.next| .def_372))
(define-fun .def_205 () Int (* (- 1) |!{$(in_main#0)<i>}.next|))
(define-fun .def_206 () Int (+ .def_18 .def_205))
(define-fun .def_207 () Bool (= .def_206 (- 1)))
(define-fun .def_321 () Bool (and .def_151 .def_207))
(define-fun .def_322 () Bool (and .def_133 .def_321))
(define-fun .def_323 () Bool (and .def_135 .def_322))
(define-fun .def_324 () Bool (and .def_137 .def_323))
(define-fun .def_374 () Bool (and .def_324 .def_373))
(define-fun .def_375 () Bool (and .def_141 .def_374))
(define-fun .def_376 () Bool (and .def_143 .def_375))
(define-fun .def_377 () Bool (and .def_145 .def_376))
(define-fun .def_197 () Bool (not .def_196))
(define-fun .def_378 () Bool (and .def_197 .def_377))
(define-fun .def_383 () Bool (and .def_378 .def_382))
(define-fun .def_386 () Bool (or .def_383 .def_385))
(define-fun .def_363 () Bool (= .def_58 86))
(define-fun .def_348 () Bool (= !pc.next 100))
(define-fun .def_367 () Bool (and .def_348 .def_363))
(define-fun .def_368 () Bool (and .def_259 .def_367))
(define-fun .def_365 () Bool (and .def_363 .def_364))
(define-fun .def_355 () Int (select .def_26 .def_18))
(define-fun .def_356 () (Array Int Int) (store .def_28 .def_18 .def_355))
(define-fun .def_357 () Bool (= |!{$(in_main#0)<a3.4>}.next| .def_356))
(define-fun .def_325 () Bool (and .def_139 .def_324))
(define-fun .def_358 () Bool (and .def_325 .def_357))
(define-fun .def_359 () Bool (and .def_143 .def_358))
(define-fun .def_360 () Bool (and .def_145 .def_359))
(define-fun .def_361 () Bool (and .def_197 .def_360))
(define-fun .def_366 () Bool (and .def_361 .def_365))
(define-fun .def_369 () Bool (or .def_366 .def_368))
(define-fun .def_347 () Bool (= .def_58 100))
(define-fun .def_333 () Bool (= !pc.next 114))
(define-fun .def_351 () Bool (and .def_333 .def_347))
(define-fun .def_352 () Bool (and .def_259 .def_351))
(define-fun .def_349 () Bool (and .def_347 .def_348))
(define-fun .def_340 () Int (select .def_28 .def_18))
(define-fun .def_341 () (Array Int Int) (store .def_30 .def_18 .def_340))
(define-fun .def_342 () Bool (= |!{$(in_main#0)<a4.5>}.next| .def_341))
(define-fun .def_326 () Bool (and .def_141 .def_325))
(define-fun .def_343 () Bool (and .def_326 .def_342))
(define-fun .def_344 () Bool (and .def_145 .def_343))
(define-fun .def_345 () Bool (and .def_197 .def_344))
(define-fun .def_350 () Bool (and .def_345 .def_349))
(define-fun .def_353 () Bool (or .def_350 .def_352))
(define-fun .def_332 () Bool (= .def_58 114))
(define-fun .def_312 () Bool (= !pc.next 128))
(define-fun .def_336 () Bool (and .def_312 .def_332))
(define-fun .def_337 () Bool (and .def_259 .def_336))
(define-fun .def_334 () Bool (and .def_332 .def_333))
(define-fun .def_319 () Int (select .def_30 .def_18))
(define-fun .def_320 () (Array Int Int) (store .def_32 .def_18 .def_319))
(define-fun .def_328 () Bool (= |!{$(in_main#0)<a5.6>}.next| .def_320))
(define-fun .def_327 () Bool (and .def_143 .def_326))
(define-fun .def_329 () Bool (and .def_327 .def_328))
(define-fun .def_330 () Bool (and .def_197 .def_329))
(define-fun .def_335 () Bool (and .def_330 .def_334))
(define-fun .def_338 () Bool (or .def_335 .def_337))
(define-fun .def_311 () Bool (= .def_58 128))
(define-fun .def_287 () Bool (= !pc.next 142))
(define-fun .def_315 () Bool (and .def_287 .def_311))
(define-fun .def_316 () Bool (and .def_259 .def_315))
(define-fun .def_313 () Bool (and .def_311 .def_312))
(define-fun .def_294 () Int (select .def_32 .def_18))
(define-fun .def_295 () (Array Int Int) (store .def_8 .def_18 .def_294))
(define-fun .def_296 () Bool (= |!{$(in_main#0)<a6.7>}.next| .def_295))
(define-fun .def_297 () Bool (and .def_123 .def_296))
(define-fun .def_298 () Bool (and .def_125 .def_297))
(define-fun .def_299 () Bool (and .def_127 .def_298))
(define-fun .def_300 () Bool (and .def_129 .def_299))
(define-fun .def_301 () Bool (and .def_207 .def_300))
(define-fun .def_302 () Bool (and .def_133 .def_301))
(define-fun .def_303 () Bool (and .def_135 .def_302))
(define-fun .def_304 () Bool (and .def_137 .def_303))
(define-fun .def_305 () Bool (and .def_139 .def_304))
(define-fun .def_306 () Bool (and .def_141 .def_305))
(define-fun .def_307 () Bool (and .def_143 .def_306))
(define-fun .def_308 () Bool (and .def_145 .def_307))
(define-fun .def_309 () Bool (and .def_197 .def_308))
(define-fun .def_314 () Bool (and .def_309 .def_313))
(define-fun .def_317 () Bool (or .def_314 .def_316))
(define-fun .def_286 () Bool (= .def_58 142))
(define-fun .def_262 () Bool (= !pc.next 156))
(define-fun .def_290 () Bool (and .def_262 .def_286))
(define-fun .def_291 () Bool (and .def_259 .def_290))
(define-fun .def_288 () Bool (and .def_286 .def_287))
(define-fun .def_269 () Int (select .def_8 .def_18))
(define-fun .def_270 () (Array Int Int) (store .def_10 .def_18 .def_269))
(define-fun .def_271 () Bool (= |!{$(in_main#0)<a7.8>}.next| .def_270))
(define-fun .def_272 () Bool (and .def_121 .def_271))
(define-fun .def_273 () Bool (and .def_125 .def_272))
(define-fun .def_274 () Bool (and .def_127 .def_273))
(define-fun .def_275 () Bool (and .def_129 .def_274))
(define-fun .def_276 () Bool (and .def_207 .def_275))
(define-fun .def_277 () Bool (and .def_133 .def_276))
(define-fun .def_278 () Bool (and .def_135 .def_277))
(define-fun .def_279 () Bool (and .def_137 .def_278))
(define-fun .def_280 () Bool (and .def_139 .def_279))
(define-fun .def_281 () Bool (and .def_141 .def_280))
(define-fun .def_282 () Bool (and .def_143 .def_281))
(define-fun .def_283 () Bool (and .def_145 .def_282))
(define-fun .def_284 () Bool (and .def_197 .def_283))
(define-fun .def_289 () Bool (and .def_284 .def_288))
(define-fun .def_292 () Bool (or .def_289 .def_291))
(define-fun .def_261 () Bool (= .def_58 156))
(define-fun .def_228 () Bool (= !pc.next 170))
(define-fun .def_265 () Bool (and .def_228 .def_261))
(define-fun .def_266 () Bool (and .def_259 .def_265))
(define-fun .def_263 () Bool (and .def_261 .def_262))
(define-fun .def_235 () Int (select .def_10 .def_18))
(define-fun .def_236 () (Array Int Int) (store .def_12 .def_18 .def_235))
(define-fun .def_237 () Bool (= |!{$(in_main#0)<a9.9>}.next| .def_236))
(define-fun .def_238 () Bool (and .def_148 .def_237))
(define-fun .def_239 () Bool (and .def_127 .def_238))
(define-fun .def_240 () Bool (and .def_129 .def_239))
(define-fun .def_241 () Bool (and .def_207 .def_240))
(define-fun .def_242 () Bool (and .def_133 .def_241))
(define-fun .def_243 () Bool (and .def_135 .def_242))
(define-fun .def_244 () Bool (and .def_137 .def_243))
(define-fun .def_245 () Bool (and .def_139 .def_244))
(define-fun .def_246 () Bool (and .def_141 .def_245))
(define-fun .def_247 () Bool (and .def_143 .def_246))
(define-fun .def_248 () Bool (and .def_145 .def_247))
(define-fun .def_249 () Bool (and .def_197 .def_248))
(define-fun .def_264 () Bool (and .def_249 .def_263))
(define-fun .def_267 () Bool (or .def_264 .def_266))
(define-fun .def_227 () Bool (= .def_58 170))
(define-fun .def_185 () Bool (= !pc.next 184))
(define-fun .def_231 () Bool (and .def_185 .def_227))
(define-fun .def_217 () Bool (= |!{$(in_main#0)<x>}.next| 0))
(define-fun .def_152 () Bool (and .def_131 .def_151))
(define-fun .def_218 () Bool (and .def_152 .def_217))
(define-fun .def_219 () Bool (and .def_135 .def_218))
(define-fun .def_220 () Bool (and .def_137 .def_219))
(define-fun .def_221 () Bool (and .def_139 .def_220))
(define-fun .def_222 () Bool (and .def_141 .def_221))
(define-fun .def_223 () Bool (and .def_143 .def_222))
(define-fun .def_224 () Bool (and .def_145 .def_223))
(define-fun .def_225 () Bool (and .def_196 .def_224))
(define-fun .def_232 () Bool (and .def_225 .def_231))
(define-fun .def_229 () Bool (and .def_227 .def_228))
(define-fun .def_198 () Int (select .def_24 .def_18))
(define-fun .def_199 () (Array Int Int) (store .def_12 .def_18 .def_198))
(define-fun .def_201 () Bool (= |!{$(in_main#0)<a9.9>}.next| .def_199))
(define-fun .def_202 () Bool (and .def_148 .def_201))
(define-fun .def_203 () Bool (and .def_127 .def_202))
(define-fun .def_204 () Bool (and .def_129 .def_203))
(define-fun .def_208 () Bool (and .def_204 .def_207))
(define-fun .def_209 () Bool (and .def_133 .def_208))
(define-fun .def_210 () Bool (and .def_135 .def_209))
(define-fun .def_211 () Bool (and .def_137 .def_210))
(define-fun .def_212 () Bool (and .def_139 .def_211))
(define-fun .def_213 () Bool (and .def_141 .def_212))
(define-fun .def_214 () Bool (and .def_143 .def_213))
(define-fun .def_215 () Bool (and .def_145 .def_214))
(define-fun .def_216 () Bool (and .def_197 .def_215))
(define-fun .def_230 () Bool (and .def_216 .def_229))
(define-fun .def_233 () Bool (or .def_230 .def_232))
(define-fun .def_189 () Bool (= !pc.next 0))
(define-fun .def_180 () Bool (= .def_58 184))
(define-fun .def_190 () Bool (and .def_180 .def_189))
(define-fun .def_110 () Bool (<= .def_14 .def_20))
(define-fun .def_166 () Bool (and .def_110 .def_121))
(define-fun .def_167 () Bool (and .def_123 .def_166))
(define-fun .def_168 () Bool (and .def_125 .def_167))
(define-fun .def_169 () Bool (and .def_127 .def_168))
(define-fun .def_170 () Bool (and .def_129 .def_169))
(define-fun .def_171 () Bool (and .def_131 .def_170))
(define-fun .def_172 () Bool (and .def_133 .def_171))
(define-fun .def_173 () Bool (and .def_135 .def_172))
(define-fun .def_174 () Bool (and .def_137 .def_173))
(define-fun .def_175 () Bool (and .def_139 .def_174))
(define-fun .def_176 () Bool (and .def_141 .def_175))
(define-fun .def_177 () Bool (and .def_143 .def_176))
(define-fun .def_178 () Bool (and .def_145 .def_177))
(define-fun .def_191 () Bool (and .def_178 .def_190))
(define-fun .def_186 () Bool (and .def_180 .def_185))
(define-fun .def_154 () Int (* (- 1) |!{$(in_main#0)<x>}.next|))
(define-fun .def_155 () Int (+ .def_20 .def_154))
(define-fun .def_156 () Bool (= .def_155 (- 1)))
(define-fun .def_157 () Bool (and .def_152 .def_156))
(define-fun .def_158 () Bool (and .def_135 .def_157))
(define-fun .def_159 () Bool (and .def_137 .def_158))
(define-fun .def_160 () Bool (and .def_139 .def_159))
(define-fun .def_161 () Bool (and .def_141 .def_160))
(define-fun .def_162 () Bool (and .def_143 .def_161))
(define-fun .def_163 () Bool (and .def_145 .def_162))
(define-fun .def_113 () Int (select .def_12 .def_20))
(define-fun .def_112 () Int (select .def_22 .def_20))
(define-fun .def_114 () Bool (= .def_112 .def_113))
(define-fun .def_115 () Int (ite .def_114 1 0))
(define-fun .def_116 () Bool (= .def_115 0))
(define-fun .def_117 () Bool (not .def_116))
(define-fun .def_164 () Bool (and .def_117 .def_163))
(define-fun .def_111 () Bool (not .def_110))
(define-fun .def_165 () Bool (and .def_111 .def_164))
(define-fun .def_187 () Bool (and .def_165 .def_186))
(define-fun .def_182 () Bool (= !pc.next 204))
(define-fun .def_183 () Bool (and .def_180 .def_182))
(define-fun .def_122 () Bool (and .def_116 .def_121))
(define-fun .def_124 () Bool (and .def_122 .def_123))
(define-fun .def_126 () Bool (and .def_124 .def_125))
(define-fun .def_128 () Bool (and .def_126 .def_127))
(define-fun .def_130 () Bool (and .def_128 .def_129))
(define-fun .def_132 () Bool (and .def_130 .def_131))
(define-fun .def_134 () Bool (and .def_132 .def_133))
(define-fun .def_136 () Bool (and .def_134 .def_135))
(define-fun .def_138 () Bool (and .def_136 .def_137))
(define-fun .def_140 () Bool (and .def_138 .def_139))
(define-fun .def_142 () Bool (and .def_140 .def_141))
(define-fun .def_144 () Bool (and .def_142 .def_143))
(define-fun .def_146 () Bool (and .def_144 .def_145))
(define-fun .def_147 () Bool (and .def_111 .def_146))
(define-fun .def_184 () Bool (and .def_147 .def_183))
(define-fun .def_188 () Bool (or .def_184 .def_187))
(define-fun .def_192 () Bool (or .def_188 .def_191))
(define-fun .def_108 () Bool (and .def_61 .def_107))
(define-fun .def_104 () Bool (= |!{$(in_main#0)<a5.6>}.next| |%{$(in_main#0)<a5.6>}#1|))
(define-fun .def_102 () Bool (= |!{$(in_main#0)<a4.5>}.next| |%{$(in_main#0)<a4.5>}#1|))
(define-fun .def_100 () Bool (= |!{$(in_main#0)<a3.4>}.next| |%{$(in_main#0)<a3.4>}#1|))
(define-fun .def_98 () Bool (= |!{$(in_main#0)<a2.3>}.next| |%{$(in_main#0)<a2.3>}#1|))
(define-fun .def_96 () Bool (= |!{$(in_main#0)<a8.2>}.next| |%{$(in_main#0)<a8.2>}#1|))
(define-fun .def_94 () Bool (= |!{$(in_main#0)<a1.1>}.next| |%{$(in_main#0)<a1.1>}#1|))
(define-fun .def_92 () Bool (= |!{$(in_main#0)<x>}.next| |%{$(in_main#0)<x>}#1|))
(define-fun .def_90 () Bool (= |!{$(in_main#0)<i>}.next| |%{$(in_main#0)<i>}#1|))
(define-fun .def_88 () Bool (= |!{$(in_main#0)<a>}.next| 0))
(define-fun .def_86 () Bool (= |!{$(in_main#0)<N>}.next| |!{$(in_main#0)<$(in___VERIFIER_nondet_int#0)<h#<__VERIFIER_nondet_int.return>>>}|))
(define-fun .def_84 () Bool (= |!{$(in_main#0)<a9.9>}.next| |%{$(in_main#0)<a9.9>}#1|))
(define-fun .def_82 () Bool (= |!{$(in_main#0)<a7.8>}.next| |%{$(in_main#0)<a7.8>}#1|))
(define-fun .def_81 () Bool (= |!{$(in_main#0)<a6.7>}.next| |%{$(in_main#0)<a6.7>}#1|))
(define-fun .def_83 () Bool (and .def_81 .def_82))
(define-fun .def_85 () Bool (and .def_83 .def_84))
(define-fun .def_87 () Bool (and .def_85 .def_86))
(define-fun .def_89 () Bool (and .def_87 .def_88))
(define-fun .def_91 () Bool (and .def_89 .def_90))
(define-fun .def_93 () Bool (and .def_91 .def_92))
(define-fun .def_95 () Bool (and .def_93 .def_94))
(define-fun .def_97 () Bool (and .def_95 .def_96))
(define-fun .def_99 () Bool (and .def_97 .def_98))
(define-fun .def_101 () Bool (and .def_99 .def_100))
(define-fun .def_103 () Bool (and .def_101 .def_102))
(define-fun .def_105 () Bool (and .def_103 .def_104))
(define-fun .def_109 () Bool (and .def_105 .def_108))
(define-fun .def_193 () Bool (or .def_109 .def_192))
(define-fun .def_234 () Bool (or .def_193 .def_233))
(define-fun .def_268 () Bool (or .def_234 .def_267))
(define-fun .def_293 () Bool (or .def_268 .def_292))
(define-fun .def_318 () Bool (or .def_293 .def_317))
(define-fun .def_339 () Bool (or .def_318 .def_338))
(define-fun .def_354 () Bool (or .def_339 .def_353))
(define-fun .def_370 () Bool (or .def_354 .def_369))
(define-fun .def_387 () Bool (or .def_370 .def_386))
(define-fun .def_415 () Bool (! (or .def_387 .def_414) :trans true))
(define-fun .def_194 () Bool (= .def_58 204))
(define-fun .def_416 () Bool (! (not .def_194) :invar-property 0 :invar-property-name ||))
(assert true)
